tsp_instances/TSP50/instance40.tsp
NODE_COORD_SECTION
0 166 37
1 176 97
2 78 43
3 199 105
4 167 20
5 87 97
6 77 86
7 135 41
8 84 143
9 197 175
10 192 179
11 168 165
12 183 71
13 196 126
14 127 134
15 39 71
16 76 173
17 186 124
18 41 142
19 75 99
20 63 40
21 58 16
22 115 109
23 46 115
24 85 36
25 174 105
26 184 135
27 168 162
28 43 174
29 93 200
30 113 39
31 88 1
32 66 63
33 172 166
34 34 188
35 127 6
36 4 154
37 158 165
38 88 195
39 27 39
40 73 74
41 165 104
42 134 109
43 57 101
44 82 137
45 143 64
46 135 144
47 195 161
48 31 166
49 23 38
