tsp_instances/TSP50/instance40.opt.tour
TOUR_SECTION
1
5
46
8
31
36
32
25
3
21
22
50
40
16
33
41
7
6
20
44
24
19
37
49
29
35
30
39
17
9
45
23
43
15
47
38
28
12
34
11
10
48
27
18
14
4
26
42
2
13
-1